50
15257

927 177
393 101
674 963
450 527
510 47
92 312
150 868
397 571
493 847
425 54
900 951
160 151
215 890
839 831
672 19
861 71
206 294
565 213
753 489
112 798
567 16
264 518
461 846
964 611
422 92
413 595
940 560
717 636
188 808
692 750
698 38
398 28
525 297
886 503
934 725
648 283
940 974
545 11
601 435
852 703
32 722
864 321
823 985
958 455
268 191
213 553
687 504
685 590
77 426
917 836
